25
SMILES: CC1(CN=CNC1=O)C1=NC(=C(O)O1)[N+]([O-])=O
C         -0.94730       -1.80330       -1.39240
C         -1.00060       -0.55430       -0.49280
C         -1.82450        0.55280       -1.20300
N         -2.11200        1.67470       -0.30460
C         -2.41170        1.49890        0.94720
N         -2.34420        0.19400        1.52980
C         -1.67890       -0.86070        0.82770
O         -1.59780       -2.00540        1.35100
C          0.41160       -0.08460       -0.22060
N          1.26730       -0.73960        0.59900
C          2.39220       -0.00140        0.53250
C          2.17960        1.06360       -0.32410
O          3.06320        2.07620       -0.69170
O          0.95390        0.98210       -0.77230
N          3.58550       -0.32750        1.25790
O          4.71530        0.44960        1.16940
O          3.60370       -1.33800        1.99000
H         -0.33840       -2.60550       -0.92170
H         -0.49060       -1.55360       -2.37470
H         -1.96980       -2.20100       -1.57110
H         -1.29490        0.93000       -2.10430
H         -2.79480        0.13030       -1.54660
H         -2.67220        2.35050        1.56110
H         -2.70350        0.03830        2.49790
H          4.00900        2.13390       -0.34350
