17
SMILES: NC1=C(NC=C1[N+]([O-])=O)C(O)=O
N         -0.53820        1.91720        0.40650
C         -0.34900        0.51880        0.16070
C          0.82080       -0.10760       -0.26360
N          0.61340       -1.43950       -0.33890
C         -0.65870       -1.67880        0.03080
C         -1.28650       -0.48880        0.34440
N         -2.66090       -0.35640        0.73590
O         -3.29490        0.86260        0.69620
O         -3.32880       -1.37420        1.01140
C          2.12710        0.50960       -0.56610
O          3.16860       -0.28660       -1.03290
O          2.31920        1.74250       -0.39980
H          0.14780        2.62890        0.07890
H         -1.35870        2.26640        0.94510
H          1.30980       -2.16380       -0.62370
H         -1.10630       -2.66380        0.05870
H          4.07520        0.11330       -1.24370
