23
SMILES: CC(N)=NC1=NN(C(=O)C(N)=O)C(=O)N1
C         -2.94150       -3.17560       -1.28500
C         -2.33790       -1.96800       -0.64210
N         -3.18370       -1.08120        0.10200
N         -1.09210       -1.68240       -0.89300
C         -0.32900       -0.61160       -0.32310
N          0.67100        0.00590       -0.98610
N          1.21430        0.84840       -0.12070
C          2.28860        1.74250       -0.45270
O          2.39120        2.16000       -1.63740
C          3.30250        2.14890        0.54140
N          4.16240        3.26120        0.28780
O          3.44330        1.49290        1.60740
C          0.54140        0.72680        1.04200
O          0.76140        1.41450        2.07430
N         -0.42680       -0.19960        0.95980
H         -3.42600       -2.88270       -2.23960
H         -2.16100       -3.93880       -1.49170
H         -3.70230       -3.62500       -0.61280
H         -4.15960       -1.36720        0.33870
H         -2.91210       -0.09330        0.29720
H          4.06890        3.82900       -0.58340
H          4.89240        3.52960        0.98460
H         -1.06530       -0.53440        1.71520
