25
SMILES: CC1=C(O)N=NN1C1=C(OC(N)=O)N=C(O)N1
C          2.36200       -0.40630        1.11940
C          1.74960        0.44060        0.04570
C          2.29020        1.55920       -0.55120
O          3.52430        2.14470       -0.28390
N          1.42330        2.02160       -1.47080
N          0.38070        1.20180       -1.44890
N          0.55520        0.24380       -0.54900
C         -0.37430       -0.82760       -0.33300
C         -1.75050       -0.76960       -0.47310
O         -2.54360        0.36780       -0.66330
C         -2.31360        1.59920       -0.03990
N         -3.02660        2.75140       -0.48010
O         -1.51350        1.69410        0.93000
N         -2.26390       -2.01390       -0.41610
C         -1.17650       -2.79590       -0.23450
O         -1.24450       -4.18060       -0.13020
N         -0.01680       -2.11320       -0.18240
H          1.57020       -0.87520        1.73940
H          2.98930       -1.19610        0.65720
H          2.99190        0.21540        1.78830
H          4.15620        1.75490        0.40410
H         -3.70170        2.67940       -1.27300
H         -2.87740        3.67570       -0.01770
H         -2.13570       -4.65900       -0.18110
H          0.94550       -2.51210       -0.11790
