25
SMILES: CC1=C(O)N=NN1C(=O)C(O)C1=CON=C1O
C          2.55830       -1.60040        1.10780
C          2.16700       -0.63100        0.03160
C          2.88850       -0.27490       -1.09130
O          4.14800       -0.72900       -1.47440
N          2.17070        0.61280       -1.80190
N          1.03720        0.79660       -1.13950
N          1.00820        0.06170       -0.03560
C         -0.10540        0.03390        0.87900
O         -0.09550       -0.74700        1.86830
C         -1.32090        0.90220        0.65530
O         -0.93280        2.21010        0.32760
C         -2.21090        0.36060       -0.43310
C         -1.97530       -0.66770       -1.32880
O         -3.02350       -0.77920       -2.11530
N         -3.94140        0.09580       -1.81840
C         -3.46590        0.81300       -0.78590
O         -4.16750        1.85530       -0.18710
H          2.51660       -1.09700        2.09590
H          3.58810       -1.98010        0.96000
H          1.86090       -2.46360        1.10120
H          4.66620       -1.40240       -0.92580
H         -1.92260        0.92390        1.59380
H         -0.57830        2.62070        1.15950
H         -1.09250       -1.28930       -1.39430
H         -3.77730        2.37480        0.58960
