25
SMILES: CC1=C(OCC2=NOC(=N)OC2=O)OC(=N)N1
C         -3.15670       -0.39490        1.21470
C         -2.34670        0.42250        0.26300
C         -1.29410       -0.01230       -0.51300
O         -0.82940       -1.32650       -0.60140
C          0.29330       -1.68890       -1.39980
C          1.55990       -1.14160       -0.80570
N          2.23780       -0.15130       -1.43740
O          3.33460        0.35330       -0.92340
C          3.81600       -0.08510        0.23360
N          4.89880        0.43010        0.71580
O          3.18320       -1.05010        0.89130
C          2.07160       -1.59280        0.41460
O          1.49180       -2.50310        1.06440
O         -0.78500        1.01500       -1.15500
C         -1.48920        2.06060       -0.78180
N         -1.26400        3.25890       -1.21390
N         -2.46350        1.75290        0.10010
H         -4.14050        0.08880        1.38900
H         -2.61610       -0.48170        2.18000
H         -3.32560       -1.40940        0.79650
H          0.35960       -2.79620       -1.44550
H          0.15450       -1.31610       -2.43830
H          5.29600        0.10160        1.62430
H         -1.84220        4.06790       -0.89430
H         -3.14400        2.39820        0.56030
