22
SMILES: CC(=O)N1C(=O)C(=C2C=NOC(O)=C12)[N+]([O-])=O
C         -3.11800       -0.83940       -0.33110
C         -2.05060        0.15340       -0.66760
O         -2.36580        1.19920       -1.29530
N         -0.67090       -0.11270       -0.35750
C         -0.03670       -1.31050       -0.47360
O         -0.60790       -2.36660       -0.85800
C          1.31630       -1.22280       -0.14470
C          1.53840        0.09900        0.19380
C          2.64440        0.80950        0.62500
N          2.46340        2.12960        0.91430
O          1.29240        2.73550        0.81020
C          0.18330        2.11010        0.40280
O         -1.02330        2.79810        0.35900
C          0.27770        0.76380        0.05140
N          2.27280       -2.29370       -0.15930
O          3.58650       -2.06790        0.17690
O          1.92140       -3.44720       -0.48080
H         -2.84170       -1.40110        0.58580
H         -3.24660       -1.54870       -1.17480
H         -4.08040       -0.31680       -0.14720
H          3.61710        0.35520        0.74150
H         -1.07170        3.77390        0.62510
