23
SMILES: CC(O)(C(N)=O)C1=NOC(=N1)C(=O)C(=O)C#N
C         -1.86690        1.83760        0.12950
C         -1.58700        0.46620        0.75800
O         -1.86720        0.55900        2.13580
C         -2.49380       -0.56400        0.10740
N         -3.86240       -0.67380        0.50400
O         -2.06670       -1.29310       -0.82930
C         -0.12740        0.10580        0.56010
N          0.63490       -0.48510        1.50260
O          1.78610       -0.67310        0.93390
C          1.74680       -0.23410       -0.30020
N          0.53690        0.27380       -0.60460
C          2.87320       -0.28650       -1.24760
O          2.70930        0.16790       -2.41220
C          4.18190       -0.85540       -0.86750
O          4.37180       -1.31550        0.28930
C          5.26360       -0.89290       -1.81590
N          6.13340       -0.92300       -2.57860
H         -1.70370        1.81260       -0.97010
H         -1.19830        2.60770        0.57150
H         -2.91870        2.14230        0.32040
H         -1.79800       -0.35240        2.52670
H         -4.48750       -1.37390        0.04670
H         -4.26030       -0.04990        1.24040
