25
CC(N=C1COC(=O)C(=O)NC(=O)O1)C(O)=O
C  -2.281983  0.031136  2.439867
C  -1.768220  0.167321  1.014709
N  -2.037325 -1.047693  0.222661
C  -1.474173 -2.181294  0.422625
C  -0.466384 -2.589786  1.484255
O   0.206037 -3.827092  1.219501
C   0.895066 -4.026986  0.083511
O   1.365656 -5.109070 -0.231888
C   1.069973 -2.829466 -0.871519
O   2.084353 -2.146952 -0.825031
N   0.037742 -2.601029 -1.759503
C  -1.271917 -3.023263 -1.674222
O  -1.922547 -3.287816 -2.677296
O  -1.753760 -3.216785 -0.413832
C  -0.307707  0.608517  0.952435
O   0.324666  0.219871 -0.175108
O   0.292365  1.243756  1.803685
H  -1.653352 -0.627876  3.044785
H  -3.303551 -0.362501  2.455104
H  -2.286580  1.006604  2.938876
H  -2.332152  0.976657  0.534174
H   0.288185 -1.818533  1.646697
H  -1.015804 -2.731366  2.419573
H   0.279984 -2.111103 -2.608112
H   1.239571  0.569400 -0.093034
25
CC(O)(C=O)C1=C(OC(=O)C(=O)O1)C(=O)CO
C  -2.487018 -3.079035  1.729872
C  -2.257200 -1.857802  0.838342
O  -2.281992 -0.663313  1.621370
C  -3.441611 -1.686281 -0.122198
O  -4.133080 -2.606484 -0.553387
C  -0.960671 -1.975664  0.041608
C   0.240882 -1.460426  0.347854
O   1.349643 -1.604807 -0.498783
C   1.253908 -2.256276 -1.672194
O   2.198100 -2.314174 -2.447506
C  -0.087729 -2.946978 -2.001956
O  -0.200328 -3.646876 -2.997539
O  -1.107724 -2.731161 -1.148575
C   0.504513 -0.723746  1.625197
O   0.023342 -1.133090  2.684704
C   1.408561  0.510280  1.577671
O   1.656832  1.060336  0.297912
H  -3.427123 -2.981397  2.285613
H  -2.533259 -4.006797  1.148774
H  -1.693123 -3.185512  2.477099
H  -1.860024 -0.872262  2.482120
H  -3.619474 -0.652332 -0.468235
H   2.364971  0.259982  2.047595
H   0.921468  1.290290  2.171366
H   2.376279  0.548177 -0.113808
25
CC(N)C1=NC(=CO1)N1C(=O)OC=C1[N+]([O-])=O
C  -2.973001 -3.629864  2.584457
C  -2.971869 -2.144585  2.233277
N  -4.126745 -1.858108  1.361987
C  -1.676229 -1.759090  1.578273
N  -1.417169 -1.583004  0.298139
C  -0.090198 -1.230176  0.249133
C   0.403204 -1.219968  1.536616
O  -0.602691 -1.551690  2.395661
N   0.534689 -0.986268 -0.956077
C  -0.034263 -1.201237 -2.204445
O  -1.157327 -1.586786 -2.491778
O   0.907627 -0.920310 -3.203511
C   2.012808 -0.531304 -2.453116
C   1.807814 -0.562631 -1.141909
N   2.862466 -0.087543 -0.285878
O   2.538297  0.633610  0.663810
O   4.021547 -0.416558 -0.569432
H  -2.150161 -3.870331  3.267435
H  -3.908212 -3.916479  3.078382
H  -2.853584 -4.257769  1.693373
H  -3.090798 -1.560844  3.153233
H  -3.965709 -2.338475  0.471973
H  -4.093290 -0.868947  1.110794
H   1.355804 -1.032900  2.008679
H   2.875133 -0.234091 -3.026162
15
[O-][N+](=O)C1=NC2=NN=CN2C=C1
O  -3.915278 -2.867100  1.551912
N  -3.665687 -2.412586  0.427356
O  -4.494790 -2.255984 -0.483020
C  -2.274624 -2.011273  0.103342
N  -1.463988 -2.203036  1.101142
C  -0.163908 -1.851704  0.864238
N   0.898584 -1.912773  1.641186
N   1.986280 -1.437628  0.937822
C   1.568449 -1.094357 -0.257583
N   0.230421 -1.330377 -0.363897
C  -0.655326 -1.134931 -1.414786
C  -1.947303 -1.459449 -1.248152
H   2.174640 -0.685024 -1.052312
H  -0.259872 -0.723549 -2.335794
H  -2.711613 -1.344652 -2.004871
26
CC(=O)C(=N)N(CC(=O)C(=O)C(O)=O)C(N)=O
C  -3.163737  0.336716  1.037119
C  -2.062749 -0.029325  1.986441
O  -2.237080 -0.390163  3.141683
C  -0.644012  0.164745  1.471817
N  -0.209743  1.370198  1.262604
N   0.136943 -0.972889  1.229703
C  -0.340961 -2.315008  1.583732
C  -1.046917 -2.915384  0.390815
O  -1.771220 -2.291686 -0.377622
C  -0.894703 -4.399119  0.220544
O  -0.764926 -5.099930  1.216079
C  -0.911598 -5.024163 -1.160539
O   0.130060 -4.627866 -1.898878
O  -1.751056 -5.807674 -1.553370
C   1.375439 -0.979161  0.585435
N   1.929239  0.221169  0.315403
O   1.946870 -2.010905  0.237169
H  -4.056454 -0.247303  1.276251
H  -3.383930  1.402870  1.129017
H  -2.872337  0.110994  0.008644
H  -0.922659  2.062700  1.527844
H  -1.029748 -2.303526  2.429064
H   0.512535 -2.941028  1.866863
H   0.036515 -5.103097 -2.751443
H   2.817586  0.277211 -0.157744
H   1.430713  1.070274  0.578361
25
CC1(O)C(OC(=O)C1=O)C(O)(C=O)C(=O)C=O
C  -2.721666 -1.121378  1.667752
C  -1.207545 -1.099701  1.558824
O  -0.763602  0.164727  1.068510
C  -0.600448 -2.272427  0.775141
O   0.740760 -2.430867  1.272441
C   0.788850 -2.065869  2.582189
O   1.691510 -2.259439  3.363772
C  -0.511199 -1.340459  2.864578
O  -0.871268 -0.973816  3.966825
C  -0.668829 -2.180690 -0.761829
O  -2.054832 -2.433280 -1.101522
C   0.136722 -3.305492 -1.403326
O  -0.268953 -3.934872 -2.380150
C  -0.278846 -0.840368 -1.381783
O  -1.021018 -0.141267 -2.066150
C   1.130131 -0.352602 -1.179811
O   2.015583 -1.127056 -0.860155
H  -3.089566 -2.085038  2.034778
H  -3.072566 -0.347315  2.360234
H  -3.191232 -0.906134  0.702821
H  -1.176327  0.858004  1.624748
H  -1.121515 -3.198108  1.068034
H  -2.087017 -2.539625 -2.076064
H   1.138027 -3.506416 -0.985997
H   1.272988  0.724138 -1.360946
24
CC1(O)C(=O)C(OC(=O)C1=O)C(O)C(=O)C#N
C  -2.724800 -2.885058  1.743209
C  -2.425123 -1.526520  1.110901
O  -3.681052 -1.003885  0.693177
C  -1.477046 -1.685559 -0.072998
O  -1.805204 -1.491890 -1.241228
C  -0.061245 -2.091199  0.303511
O   0.475174 -1.404256  1.444463
C  -0.301643 -1.023824  2.478782
O   0.114978 -0.916868  3.617837
C  -1.737998 -0.629112  2.120527
O  -2.238796  0.379521  2.599570
C   0.904071 -1.989735 -0.895429
O   1.964271 -2.941728 -0.685495
C   1.512772 -0.605955 -1.125415
O   2.658752 -0.460325 -1.548001
C   0.662059  0.537483 -0.871515
N  -0.088024  1.379183 -0.590826
H  -3.459980 -2.781611  2.550234
H  -1.836998 -3.366676  2.165026
H  -3.159360 -3.568819  1.004548
H  -3.546249 -0.084331  0.392253
H  -0.113803 -3.150735  0.586277
H   0.415743 -2.292908 -1.828021
H   2.698847 -2.697678 -1.286797
23
CC1=C(N)C(=NN2C(=N)ON=C12)N1N=NN=N1
C  -3.409472 -2.902676  0.238696
C  -2.064366 -2.260277  0.374651
C  -1.674321 -1.040191 -0.061642
N  -2.523760 -0.190628 -0.725098
C  -0.202308 -0.644985  0.228765
N   0.679154 -1.382932  0.851059
N   0.226369 -2.598172  1.264967
C   0.944587 -3.547726  1.932305
N   2.168337 -3.555801  2.328571
O   0.094292 -4.615090  2.150722
N  -1.201419 -4.259045  1.571251
C  -1.037742 -3.060795  1.072353
N   0.224075  0.621281 -0.217017
N   1.495098  1.064396 -0.013128
N   1.511496  2.270134 -0.562467
N   0.279888  2.553291 -1.087788
N  -0.538454  1.532000 -0.880549
H  -3.825757 -3.126318  1.226810
H  -3.328417 -3.839808 -0.322470
H  -4.136762 -2.276322 -0.283268
H  -2.214017  0.726547 -1.047678
H  -3.485775 -0.444755 -0.916822
H   2.572739 -2.655383  2.043945
25
CC(=NO)C(O)C(=NO)C1(O)C(=O)OC1=N
C  -1.728723  0.903591  1.831019
C  -1.101454 -0.426399  1.473207
N  -0.859969 -1.245055  2.455238
O  -0.287783 -2.445015  2.046601
C  -0.760126 -0.650473 -0.012516
O  -0.640982 -1.977522 -0.468360
C   0.445009  0.210583 -0.436312
N   0.337234  1.347429 -1.079535
O  -0.989663  1.708146 -1.316112
C   1.917522 -0.187253 -0.111756
O   2.887766  0.186900 -1.135171
C   2.246480  0.313738  1.318921
O   2.309008  1.360542  1.922418
O   2.471500 -0.947311  1.794068
C   2.155178 -1.465114  0.601513
N   2.114767 -2.709556  0.304308
H  -2.060461  0.904961  2.873161
H  -2.591532  1.088715  1.185965
H  -0.994170  1.701032  1.692675
H  -0.328350 -2.984014  2.862653
H  -1.644138 -0.289111 -0.546534
H  -0.153923 -2.492071  0.207489
H  -0.904720  2.522446 -1.850756
H   2.529646  1.023993 -1.491486
H   2.389609 -3.248643  1.135141
25
CC(N1N=C(N)N=C1O)C1=C(O)C(=O)ON=N1
C  -1.854551 -3.307394  1.088955
C  -0.539445 -2.526627  0.993504
N  -0.728480 -1.163158  1.481883
N  -1.407017 -0.233104  0.773090
C  -1.336380  0.817979  1.587253
N  -1.854871  2.012192  1.348045
N  -0.671769  0.617699  2.760290
C  -0.307522 -0.631413  2.662776
O   0.367597 -1.265128  3.600033
C   0.198901 -2.514318 -0.342463
C  -0.346017 -2.771900 -1.535035
O  -1.673537 -3.094046 -1.740492
C   0.531781 -2.685243 -2.705608
O   0.044398 -2.910958 -3.813718
O   1.830409 -2.365400 -2.527400
N   2.282277 -2.163257 -1.214015
N   1.532079 -2.228817 -0.224567
H  -2.179960 -3.374996  2.134046
H  -2.668359 -2.821442  0.540309
H  -1.736469 -4.329847  0.714987
H   0.137079 -3.013045  1.711340
H  -2.355676  2.196464  0.491595
H  -1.760693  2.763827  2.014363
H   0.487544 -0.564793  4.268174
H  -1.783176 -3.158623 -2.714428
15
[O-][N+](=O)C1=CN2C(=O)COC2=N1
O  -4.492123 -2.793564  0.566752
N  -4.021217 -2.164779 -0.392037
O  -4.656154 -1.756902 -1.372002
C  -2.600417 -1.891144 -0.346389
C  -1.708033 -2.258122  0.657591
N  -0.527143 -1.761831  0.208864
C   0.781509 -1.695924  0.587762
O   1.204355 -2.176237  1.618065
C   1.435598 -0.926555 -0.555746
O   0.362352 -0.629879 -1.501353
C  -0.730783 -1.153131 -0.970413
N  -1.967616 -1.189785 -1.374947
H  -1.819403 -2.796115  1.588978
H   1.858597  0.014062 -0.193721
H   2.186464 -1.544516 -1.054824
28
CC(O)C1(OC(C=O)C(=O)OCOC1=O)C(O)=O
C  -3.094869 -1.205931 -0.152530
C  -2.190061 -0.280411  0.663718
O  -2.724529 -0.239624  1.996619
C  -0.692672 -0.733234  0.707932
O  -0.682773 -2.099495  1.156433
C   0.573616 -2.653829  1.531185
C   0.594237 -2.925481  3.033777
O  -0.343758 -2.716120  3.799293
C   0.904570 -3.940162  0.775284
O   1.396928 -4.919316  1.332166
O   0.724909 -3.956002 -0.567350
C   0.089644 -2.888495 -1.282812
O   0.715735 -1.623058 -1.081311
C  -0.133371 -0.619217 -0.726924
O  -0.337442  0.320629 -1.485577
C   0.078628  0.287099  1.584384
O  -0.213883  1.581945  1.344273
O   0.955577  0.024459  2.396964
H  -3.119692 -2.216020  0.269807
H  -2.781832 -1.263350 -1.198456
H  -4.127732 -0.840018 -0.130967
H  -2.280458  0.733446  0.255728
H  -3.660629  0.021426  1.945269
H   1.413526 -1.983325  1.321008
H   1.550422 -3.315771  3.424876
H  -0.988489 -2.900485 -1.090899
H   0.209700 -3.125553 -2.345125
H   0.330358  2.085606  1.987261
21
CC(=O)C(=O)N(C=O)C1=NNC=NC1=O
C  -1.200174 -0.284074  3.477429
C  -0.569073 -0.530235  2.139644
O  -0.169879  0.362351  1.400384
C  -0.434090 -1.992367  1.716561
O  -0.836659 -2.883385  2.454218
N   0.065433 -2.161713  0.454301
C   1.314491 -2.733709  0.418557
O   2.179368 -2.602294  1.279802
C  -0.713702 -1.761576 -0.626666
N  -1.975125 -1.457520 -0.463289
N  -2.635364 -1.116800 -1.606153
C  -2.081397 -1.139388 -2.857473
N  -0.857402 -1.419081 -3.145803
C  -0.077106 -1.670349 -2.033908
O   1.135680 -1.809929 -2.122829
H  -1.241342  0.792201  3.667498
H  -2.219107 -0.678997  3.484713
H  -0.602234 -0.754713  4.261747
H   1.519754 -3.300281 -0.501601
H  -3.617759 -0.854354 -1.516103
H  -2.803933 -0.893470 -3.653485
14
[O-][N+](=O)C1=NN2C=CNC2=N1
O  -4.472682 -2.551116  1.440014
N  -3.878710 -1.480554  1.236296
O  -4.299645 -0.360067  1.562776
C  -2.587057 -1.532172  0.562668
N  -2.055261 -2.714590  0.172876
N  -0.913333 -2.283910 -0.376579
C   0.214056 -2.783455 -1.008537
C   0.987295 -1.715780 -1.305397
N   0.353323 -0.559262 -0.865199
C  -0.817271 -0.908832 -0.293092
N  -1.851663 -0.385069  0.293100
H   0.358713 -3.834046 -1.185149
H   1.948323 -1.673161 -1.798734
H   0.740118  0.369332 -0.975489
17
C#CC1=NNC2=C1C(=NO2)N1N=NN=N1
C  -2.455160  1.035066  1.282156
C  -1.706586  0.102292  1.390093
C  -0.820675 -1.001650  1.519681
N  -0.496622 -1.427718  2.763198
N   0.353781 -2.481131  2.548577
C   0.532991 -2.679437  1.230436
C  -0.187583 -1.771262  0.574633
C   0.019874 -2.004362 -0.761602
N   0.866255 -3.053711 -0.925604
O   1.193401 -3.484977  0.390533
N  -0.502969 -1.333266 -1.889677
N  -0.223181 -1.657043 -3.186379
N  -0.913737 -0.785033 -3.905407
N  -1.600508  0.053436 -3.074291
N  -1.357453 -0.272182 -1.813808
H  -3.119033  1.862274  1.187278
H   0.741791 -2.978392  3.343966
28
CC1(O)C(COC1OC(=O)C(O)=O)OC(N)=O
C  -2.535865 -1.164812  1.967407
C  -1.464261 -1.370674  0.889970
O  -1.773043 -0.503490 -0.206143
C  -0.039800 -1.128176  1.392113
C   0.290647 -2.448406  2.081765
O  -0.556783 -3.465761  1.518658
C  -1.362993 -2.855477  0.488971
O  -0.683460 -2.996771 -0.760444
C  -1.502313 -3.029728 -1.833270
O  -2.720044 -3.071813 -1.833980
C  -0.643382 -3.020203 -3.126042
O  -1.369964 -3.189524 -4.240307
O   0.564106 -2.881390 -3.167656
O   0.014393  0.015200  2.257502
C   1.254287  0.352787  2.674911
N   1.192579  1.438609  3.473917
O   2.290274 -0.223690  2.392973
H  -2.595093 -0.113403  2.270205
H  -3.524760 -1.423680  1.571487
H  -2.356526 -1.772536  2.859650
H  -1.693128  0.412043  0.117961
H   0.623533 -0.953631  0.533472
H   0.114473 -2.411511  3.161899
H   1.333965 -2.737289  1.921184
H  -2.331099 -3.368974  0.482172
H  -0.715705 -3.159930 -4.967147
H   0.307763  1.874929  3.679552
H   2.047860  1.807015  3.863247
27
CC1OC2=C(O)C(CO)=C(O2)OCOC(=O)O1
C  -3.143617 -0.011390  3.049148
C  -2.298363 -0.579102  1.915374
O  -1.338056 -1.483388  2.536334
C  -0.407562 -1.938294  1.702613
C  -0.009337 -3.166356  1.232674
O  -0.472067 -4.354811  1.657424
C   0.886152 -2.935798  0.146199
C   1.497159 -3.935902 -0.758183
O   1.948876 -5.093246 -0.061322
C   0.951642 -1.558354  0.046987
O   0.342234 -0.983044  1.109979
O   1.431273 -0.689944 -0.839583
C   0.426732  0.195701 -1.402417
O  -0.356336  0.944793 -0.457557
C  -1.514381  0.325071 -0.104446
O  -2.140934 -0.459302 -0.801901
O  -1.731593  0.549197  1.219863
H  -2.520154  0.566781  3.740681
H  -3.616019 -0.812585  3.626343
H  -3.916290  0.661039  2.663239
H  -2.959575 -1.172118  1.269781
H  -1.060985 -4.218141  2.423860
H   0.769201 -4.256356 -1.510905
H   2.358329 -3.512489 -1.284877
H   1.220323 -5.350372  0.534918
H   0.975649  0.932776 -1.997813
H  -0.190291 -0.369561 -2.113032
30
CC(CN(C=N)C(=O)CO)C1=NOC(=O)N=C1O
C  -2.024145 -3.133586  0.777135
C  -2.042664 -1.657110  0.383627
C  -1.505795 -0.709412  1.474870
N  -0.133600 -0.981876  1.917683
C   0.861917 -0.185681  1.371967
N   1.987839  0.115927  1.907479
C   0.019709 -1.906547  2.957345
O  -0.904919 -2.228075  3.711507
C   1.386484 -2.579892  3.115147
O   1.236235 -3.898273  3.633065
C  -1.320495 -1.425304 -0.929677
N  -0.270977 -2.100074 -1.260234
O   0.309120 -1.791738 -2.519331
C  -0.338448 -0.978821 -3.438877
O   0.038998 -0.965459 -4.604526
N  -1.344657 -0.150569 -3.009881
C  -1.803937 -0.351006 -1.839638
O  -2.753255  0.440758 -1.357830
H  -2.486792 -3.742799 -0.007705
H  -1.008085 -3.514775  0.919776
H  -2.587595 -3.297014  1.701344
H  -3.098135 -1.401932  0.222586
H  -1.549494  0.325571  1.112324
H  -2.177321 -0.758564  2.340553
H   0.611026  0.229611  0.382341
H   2.094385 -0.227045  2.859249
H   1.903409 -2.652616  2.155487
H   1.989334 -2.013230  3.828473
H   0.509548 -3.852389  4.285777
H  -2.982751  1.093270 -2.045280
17
C#CC1=NNC2=C1C(=NO2)N1N=NN=N1
C  -2.455160  1.035066  1.282156
C  -1.706586  0.102292  1.390093
C  -0.820675 -1.001650  1.519681
N  -0.496622 -1.427718  2.763198
N   0.353781 -2.481131  2.548577
C   0.532991 -2.679437  1.230436
C  -0.187583 -1.771262  0.574633
C   0.019874 -2.004362 -0.761602
N   0.866255 -3.053711 -0.925604
O   1.193401 -3.484977  0.390533
N  -0.502969 -1.333266 -1.889677
N  -0.223181 -1.657043 -3.186379
N  -0.913737 -0.785033 -3.905407
N  -1.600508  0.053436 -3.074291
N  -1.357453 -0.272182 -1.813808
H  -3.119033  1.862274  1.187278
H   0.741791 -2.978392  3.343966
17
C1=NN=CC2=C(N=NN12)C1=NN=NN=N1
C  -1.853720 -0.546996  2.798819
N  -2.950466 -0.048486  2.307808
N  -3.142215 -0.023823  0.887034
C  -2.230024 -0.495012  0.086068
C  -1.029868 -1.041442  0.603061
C   0.132637 -1.615687  0.143163
N   0.916739 -1.937424  1.234855
N   0.269880 -1.578140  2.341262
N  -0.893987 -1.043041  1.950136
C   0.522543 -1.865252 -1.227757
N  -0.321199 -1.509605 -2.200038
N   0.083986 -1.757905 -3.389530
N   1.207261 -2.302663 -3.618316
N   1.995809 -2.633746 -2.680428
N   1.706435 -2.438466 -1.447717
H  -1.677506 -0.579974  3.884625
H  -2.411720 -0.459435 -0.999263
17
C#CC1=NNC2=C1C(=NO2)N1N=NN=N1
C  -2.455160  1.035066  1.282156
C  -1.706586  0.102292  1.390093
C  -0.820675 -1.001650  1.519681
N  -0.496622 -1.427718  2.763198
N   0.353781 -2.481131  2.548577
C   0.532991 -2.679437  1.230436
C  -0.187583 -1.771262  0.574633
C   0.019874 -2.004362 -0.761602
N   0.866255 -3.053711 -0.925604
O   1.193401 -3.484977  0.390533
N  -0.502969 -1.333266 -1.889677
N  -0.223181 -1.657043 -3.186379
N  -0.913737 -0.785033 -3.905407
N  -1.600508  0.053436 -3.074291
N  -1.357453 -0.272182 -1.813808
H  -3.119033  1.862274  1.187278
H   0.741791 -2.978392  3.343966
19
CNC1=C(OC(CO)=N1)[N+]([O-])=O
C   0.337200  0.844030 -1.803156
N  -0.774095 -0.013487 -1.462908
C  -0.696895 -0.901110 -0.455506
C  -1.641027 -1.787503 -0.009860
O  -1.133455 -2.493400  1.043917
C   0.136699 -1.982078  1.170495
C   0.973459 -2.558936  2.257244
O   0.863602 -3.981785  2.226682
N   0.433234 -1.026389  0.307052
N  -2.965733 -2.088649 -0.410014
O  -3.568299 -2.966069  0.223219
O  -3.423648 -1.446218 -1.365772
H   0.064268  1.483641 -2.648326
H   1.213090  0.255931 -2.096315
H   0.604824  1.493711 -0.963352
H  -1.611860  0.082049 -2.034920
H   2.025123 -2.292299  2.122005
H   0.639243 -2.200663  3.235023
H  -0.087646 -4.192741  2.228371
25
CC1=NC(=O)OC(=N)C(=O)C(=O)N1CC(N)=O
C  -2.140324 -3.223171 -0.702246
C  -1.583778 -2.052276  0.068955
N  -2.406901 -1.141805  0.486429
C  -1.887256  0.070013  0.857434
O  -1.311609  0.815230  0.076612
O  -2.035798  0.380925  2.163993
C  -1.698178 -0.537452  3.065551
N  -2.153099 -0.433749  4.273698
C  -0.752572 -1.670969  2.688471
O  -0.830924 -2.718422  3.324413
C   0.258708 -1.600019  1.556553
O   1.389429 -1.201508  1.785146
N  -0.227061 -2.049063  0.329563
C   0.764058 -2.520408 -0.637476
C   1.330017 -1.457602 -1.582616
N   0.773082 -0.217691 -1.590525
O   2.230593 -1.724323 -2.376532
H  -1.638693 -4.150545 -0.412567
H  -1.993367 -3.051151 -1.772445
H  -3.212206 -3.326804 -0.509946
H  -1.806573 -1.228743  4.833159
H   0.331606 -3.299627 -1.271022
H   1.611961 -2.953788 -0.093982
H   1.160839  0.463299 -2.232077
H   0.036188  0.114298 -0.975630
18
NN1N=C(OC=C)C(=C1)[N+]([O-])=O
N   1.822715 -1.692408 -1.932637
N   0.658036 -1.678695 -1.177279
N   0.557099 -0.980863 -0.048052
C  -0.693570 -1.228414  0.362587
O  -1.174463 -0.680424  1.502600
C  -0.417068  0.148984  2.291488
C  -0.902023  0.684016  3.414277
C  -1.380483 -2.084813 -0.511968
C  -0.467730 -2.361546 -1.510098
N  -2.714818 -2.576925 -0.422014
O  -3.093347 -3.328103 -1.330380
O  -3.392583 -2.221630  0.547920
H   2.068090 -0.734685 -2.174415
H   2.592083 -2.003562 -1.343439
H   0.590250  0.339953  1.947891
H  -1.916721  0.477365  3.738584
H  -0.292000  1.337643  4.027677
H  -0.526353 -2.969726 -2.401816
26
CC1(CN(C=O)C(=O)NC(=O)C1=NO)OC=O
C  -1.960106 -0.973483 -0.815384
C  -0.634145 -1.043759 -0.055480
C  -0.860677 -0.765571  1.453043
N  -1.244932 -1.958543  2.216278
C  -2.582357 -2.163818  2.497141
O  -3.502068 -1.452232  2.109295
C  -0.313868 -2.860645  2.681325
O  -0.535366 -3.671709  3.577551
N   0.936062 -2.819610  2.116957
C   1.292686 -2.500997  0.825253
O   2.451385 -2.375898  0.459741
C   0.146660 -2.354918 -0.168233
N   0.008104 -3.375375 -0.966240
O  -1.016111 -3.230615 -1.893619
O   0.318030 -0.114927 -0.660023
C   0.126607  1.218311 -0.545209
O  -0.751528  1.767727  0.095601
H  -2.616834 -1.814453 -0.571868
H  -1.799614 -0.943131 -1.898690
H  -2.507080 -0.054110 -0.578039
H  -1.624413  0.007629  1.595638
H   0.053864 -0.355979  1.903113
H  -2.777691 -3.066909  3.099734
H   1.673621 -3.243511  2.663141
H  -0.936992 -4.041341 -2.433534
H   0.908829  1.746516 -1.112493
27
CC(=O)C(=O)CN1C(=O)OC(=N)C(=O)C(=N)C(=O)N1
C  -4.504412 -1.882506  3.126582
C  -3.283947 -1.072485  2.809920
O  -3.146377  0.110374  3.092000
C  -2.154169 -1.793547  2.105025
O  -2.120828 -3.019745  2.107432
C  -1.085163 -0.904364  1.502785
N  -0.379446 -1.633638  0.447727
C  -0.897100 -1.701694 -0.845480
O  -1.956801 -1.166118 -1.151304
O  -0.215319 -2.472581 -1.738286
C   1.049517 -2.159910 -2.019038
N   1.755334 -2.947418 -2.758017
C   1.668574 -0.894290 -1.443520
O   1.633323  0.159921 -2.059188
C   2.249334 -0.927053 -0.056860
N   2.880450  0.098566  0.437890
C   1.983424 -2.156160  0.784009
O   2.893749 -2.826082  1.238556
N   0.647817 -2.476378  0.912532
H  -5.271465 -1.231126  3.554910
H  -4.255870 -2.659560  3.853484
H  -4.900451 -2.329258  2.211115
H  -1.553275 -0.022592  1.053965
H  -0.379656 -0.591291  2.278497
H   1.159616 -3.731116 -3.054179
H   2.930171  0.835919 -0.285369
H   0.384981 -3.311062  1.438193
23
CC1=NOC(NC(=NCC#N)N2N=NN=N2)=N1
C  -3.975813 -3.632393  2.683126
C  -3.603964 -2.574323  1.726350
N  -4.514029 -1.813375  1.107075
O  -3.730956 -0.974104  0.313550
C  -2.423610 -1.317287  0.538884
N  -1.512397 -0.606509 -0.145705
C  -0.127879 -0.731533 -0.137530
N   0.457739 -1.636663  0.578291
C   1.890268 -1.898807  0.662545
C   2.321473 -2.674700 -0.513387
N   2.649202 -3.268481 -1.456261
N   0.537949  0.210769 -0.970136
N   1.872533  0.358680 -1.103347
N   2.000246  1.373955 -1.946262
N   0.759472  1.835083 -2.303964
N  -0.173967  1.118609 -1.693369
N  -2.303264 -2.293373  1.404923
H  -3.086394 -4.138556  3.071034
H  -4.522607 -3.209510  3.531567
H  -4.609647 -4.382767  2.200556
H  -1.891896  0.114454 -0.754812
H   2.478033 -0.989484  0.812191
H   2.062976 -2.502942  1.560848
26
CC12OC(=O)OCC1OC(CO)OC(=O)O2
C  -0.145871  0.419102  2.436373
C  -0.375483 -0.470490  1.203434
O  -1.426611  0.110986  0.432654
C  -2.730251 -0.091266  0.761337
O  -3.631339  0.516079  0.201484
O  -2.987525 -0.978629  1.759890
C  -2.021260 -1.869792  2.348457
C  -0.724773 -1.913534  1.569935
O  -0.979227 -2.746704  0.425820
C   0.104009 -2.777607 -0.501313
C  -0.141869 -3.964083 -1.452771
O  -1.422178 -3.881187 -2.085595
O   0.124137 -1.585746 -1.276095
C   0.957077 -0.626416 -0.817082
O   1.734261 -0.020628 -1.537722
O   0.902765 -0.429390  0.523609
H  -1.056686  0.588922  3.017931
H   0.208679  1.409058  2.123382
H   0.624300 -0.003773  3.090584
H  -1.863299 -1.543453  3.381394
H  -2.487792 -2.860246  2.386849
H   0.066589 -2.393733  2.157127
H   1.058252 -2.949518  0.016282
H  -0.121396 -4.905188 -0.894466
H   0.615869 -3.995734 -2.241124
H  -2.028310 -3.478380 -1.435382
17
ON1C2=C(CCO2)N=C1[N+]([O-])=O
O  -1.274685 -3.850431  0.311866
N  -1.169557 -2.510506 -0.036918
C  -0.288609 -1.629095  0.486724
C  -0.449952 -0.467120 -0.187350
C   0.491148  0.526858  0.318886
C   1.221012 -0.339470  1.430750
O   0.627261 -1.701589  1.435951
N  -1.406101 -0.545109 -1.140909
C  -1.832400 -1.806480 -1.014609
N  -2.861643 -2.390916 -1.805122
O  -2.919224 -2.048550 -2.993630
O  -3.631838 -3.181274 -1.243539
H  -0.757218 -3.851957  1.137396
H   1.204766  0.863815 -0.437697
H  -0.002802  1.392962  0.767316
H   2.291287 -0.434806  1.218741
H   1.083140  0.096571  2.425926
25
CC(=O)CC1(CN=CO1)C1=C(ON=N1)[N+]([O-])=O
C  -1.585092 -4.128537  1.387602
C  -1.964364 -2.885335  0.628497
O  -2.380684 -2.936371 -0.529498
C  -1.789329 -1.556398  1.327418
C  -0.531541 -0.810447  0.846049
C  -0.347029  0.468398  1.685867
N   0.536302  0.078883  2.800014
C   1.058050 -1.020860  2.386568
O   0.633327 -1.558183  1.225680
C  -0.568035 -0.500422 -0.616695
C  -0.118745 -1.163457 -1.724533
O  -0.419860 -0.434088 -2.824711
N  -1.085956  0.716168 -2.393019
N  -1.175635  0.652186 -1.067397
N   0.544753 -2.388242 -1.974416
O   0.907157 -2.613814 -3.135982
O   0.736269 -3.135875 -1.007797
H  -0.531553 -4.083037  1.672295
H  -1.741549 -5.006784  0.755141
H  -2.212676 -4.219037  2.277535
H  -1.748848 -1.750268  2.406358
H  -2.696504 -0.967112  1.143633
H  -1.296313  0.865634  2.061764
H   0.151864  1.272348  1.130100
H   1.834133 -1.610700  2.892440
29
CC1(OCC(OC(N)=N)C(O)C(=O)O1)C(O)=O
C  -0.645342 -4.132712 -0.313754
C   0.254403 -2.899756 -0.482922
O   0.942575 -2.543483  0.715129
C   0.144519 -2.073057  1.793154
C  -0.554119 -0.749342  1.476240
O  -0.848159 -0.112317  2.748647
C  -1.062971  1.216817  2.747634
N  -1.308299  1.678492  3.979770
N  -1.030662  1.917084  1.676634
C  -1.852307 -0.961282  0.691272
O  -2.761903 -1.812992  1.406412
C  -1.663027 -1.520713 -0.710577
O  -2.618803 -1.723756 -1.455921
O  -0.402272 -1.776766 -1.095323
C   1.363514 -3.304294 -1.498361
O   2.176269 -4.295083 -1.055039
O   1.561891 -2.835577 -2.610619
H  -0.091762 -4.972371  0.120750
H  -1.062973 -4.449175 -1.276163
H  -1.490443 -3.942420  0.353435
H  -0.547148 -2.850254  2.135098
H   0.833354 -1.916519  2.632169
H   0.143302 -0.121789  0.905442
H  -1.319658  1.020614  4.746954
H  -1.494767  2.649247  4.172441
H  -1.216737  2.892292  1.919757
H  -2.360968  0.001226  0.571067
H  -3.586042 -1.824072  0.880877
H   2.832986 -4.392779 -1.775776
25
CC1OC(C(OC(=O)C(O)=O)OC1=O)C(O)=O
C  -3.967986 -2.691028 -0.364722
C  -2.779697 -1.759155 -0.581845
O  -2.476288 -1.191980  0.685853
C  -1.098136 -0.882885  0.857784
C  -0.253158 -2.115580  0.518412
O   1.150270 -1.917877  0.730723
C   1.539555 -1.917374  2.021641
O   0.813171 -2.068225  2.987220
C   3.073115 -1.685055  2.109306
O   3.504195 -1.533639  3.369018
O   3.831053 -1.643042  1.160365
O  -0.443759 -2.512581 -0.854053
C  -1.693864 -2.510740 -1.376657
O  -1.922688 -3.054666 -2.452976
C  -0.537603  0.345078  0.139692
O  -1.207199  0.692283 -0.975657
O   0.444939  0.981759  0.489738
H  -3.685636 -3.530346  0.281182
H  -4.342757 -3.099702 -1.308426
H  -4.787127 -2.163958  0.136449
H  -3.106861 -0.934489 -1.225788
H  -0.995416 -0.637147  1.920796
H  -0.586285 -2.977284  1.112943
H   4.469267 -1.390327  3.286542
H  -0.732963  1.482610 -1.314625
25
CC(C=O)C1=NOC(=O)C(OC(N)=N)=NC1=O
C  -2.399521 -2.420224  3.082939
C  -2.608831 -1.019643  2.520499
C  -4.075323 -0.777631  2.264550
O  -4.648307  0.255022  2.600822
C  -1.760103 -0.789549  1.291874
N  -0.920411  0.204808  1.248932
O  -0.240024  0.241466  0.011337
C   0.782703 -0.642613  0.071221
O   1.851422 -0.519788  0.642541
C   0.298395 -1.960259 -0.539130
O   1.273150 -2.686269 -1.120422
C   2.052511 -2.025514 -2.005439
N   3.140683 -2.727459 -2.357540
N   1.737252 -0.869644 -2.462876
N  -0.891135 -2.468732 -0.442739
C  -1.923350 -1.766917  0.134062
O  -3.087795 -1.945293 -0.209139
H  -1.336062 -2.619293  3.253396
H  -2.779981 -3.193605  2.406481
H  -2.926795 -2.535887  4.036239
H  -2.292321 -0.297505  3.284505
H  -4.622866 -1.568637  1.723863
H   3.300122 -3.639489 -1.950119
H   3.825943 -2.374682 -3.008419
H   2.458786 -0.568013 -3.124524
15
OC1=CC(C=O)=C(N=N1)[N+]([O-])=O
O  -1.674443 -0.315144 -3.067026
C  -1.571954 -0.999809 -1.900284
C  -0.544244 -0.742928 -1.026520
C  -0.497618 -1.481008  0.159163
C   0.582155 -1.188489  1.122168
O   1.440285 -0.352557  0.862794
C  -1.486372 -2.433391  0.380852
N  -2.488909 -2.642523 -0.515427
N  -2.527811 -1.915458 -1.671393
N  -1.435210 -3.221298  1.600673
O  -0.476132 -3.994159  1.731875
O  -2.333990 -3.035124  2.429704
H  -2.477379 -0.697578 -3.465546
H   0.196513  0.015777 -1.260319
H   0.601094 -1.720733  2.085868
26
CC(OC(=N)C(=O)C(O)C=O)C1=NNC(=O)O1
C  -2.439259 -0.129779  2.046706
C  -2.211619 -1.031968  0.842079
O  -1.356431 -2.106539  1.271022
C  -1.136229 -3.080506  0.378605
N  -1.795143 -3.207094 -0.724546
C  -0.027462 -4.031274  0.787872
O   0.037293 -5.099416  0.186507
C   0.901435 -3.571480  1.899314
O   1.954878 -4.495196  2.154452
C   1.540993 -2.235432  1.598833
O   1.724939 -1.379343  2.461464
C  -1.570109 -0.228434 -0.260439
N  -0.304247 -0.174723 -0.555533
N  -0.291803  0.705679 -1.589822
C  -1.548320  1.162197 -1.878725
O  -1.872315  1.960225 -2.738782
O  -2.388125  0.553303 -0.999005
H  -1.490536  0.272025  2.421092
H  -2.891103 -0.694842  2.868928
H  -3.092255  0.713060  1.798922
H  -3.174504 -1.432132  0.503114
H  -1.440110 -4.052813 -1.204864
H   0.304439 -3.491900  2.814764
H   2.348336 -4.253297  3.013175
H   1.915480 -2.095220  0.570032
H   0.553845  0.983549 -2.070172
17
[O-][N+](=O)C1=NC=C(NN1N=C)C#N
O  -3.625649 -2.687340 -0.204293
N  -2.985840 -1.749066  0.294500
O  -3.366587 -1.011489  1.218779
C  -1.636731 -1.491181 -0.230113
N  -1.687497 -1.174802 -1.503495
C  -0.433790 -0.943790 -2.068051
C   0.724544 -1.047365 -1.379450
N   0.692260 -1.379897 -0.035866
N  -0.502507 -1.576435  0.597452
N  -0.409781 -2.067043  1.857113
C  -0.769980 -1.233058  2.776920
C   2.002504 -0.839088 -1.968934
N   3.055595 -0.671074 -2.426038
H  -0.437852 -0.686583 -3.125569
H   1.553103 -1.574487  0.466713
H  -0.740441 -1.542487  3.833674
H  -1.106764 -0.201911  2.570441
25
CC(OC(=O)C(O)=O)C(=O)CN1N=COC1=O
C  -1.245250 -3.842336  0.914610
C  -1.617058 -2.412262  1.286127
O  -2.525768 -1.930289  0.292184
C  -3.215142 -0.816057  0.628609
O  -3.079919 -0.167093  1.648043
C  -4.213050 -0.459262 -0.507691
O  -5.029751  0.552756 -0.189420
O  -4.266371 -1.019197 -1.585582
C  -0.332674 -1.588576  1.419291
O   0.216627 -1.450922  2.516014
C   0.242480 -0.999659  0.140828
N   1.669772 -1.188404  0.130125
N   2.254790 -2.384592 -0.176279
C   3.502542 -2.137136  0.030807
O   3.809459 -0.890871  0.442014
C   2.603576 -0.261823  0.517831
O   2.436501  0.899913  0.844627
H  -0.547158 -4.275175  1.638224
H  -2.140965 -4.471104  0.870262
H  -0.779859 -3.885106 -0.076539
H  -2.119875 -2.426695  2.261837
H  -5.598636  0.682100 -0.975514
H  -0.169974 -1.495499 -0.741950
H  -0.003619  0.065891  0.110651
H   4.357463 -2.813952 -0.086194
21
CC(C#N)N1N=NC(=O)N=C1N1C=NN=N1
C  -2.322870 -2.442518  2.378901
C  -1.961074 -1.515041  1.207614
C  -2.505890 -0.162985  1.458859
N  -2.922126  0.900665  1.667894
N  -0.493040 -1.466581  0.982168
N   0.228183 -1.469385  2.147131
N   1.469002 -1.548209  2.044454
C   2.073636 -1.687720  0.812312
O   3.236537 -2.070472  0.750369
N   1.426631 -1.394214 -0.362549
C   0.138397 -1.294525 -0.247498
N  -0.533247 -0.997597 -1.452731
C  -0.006472 -0.841747 -2.711173
N  -0.976246 -0.580543 -3.555733
N  -2.123660 -0.559439 -2.808904
N  -1.865395 -0.806032 -1.532939
H  -1.887198 -3.437792  2.237378
H  -1.974319 -2.052235  3.342249
H  -3.410398 -2.558355  2.455448
H  -2.456567 -1.973448  0.348333
H   1.046492 -0.931509 -2.934036
13
O=C1ON=NC2=C(ON=C12)C#C
O  -2.977923 -1.568060  3.350140
C  -2.929667 -1.573774  2.123610
O  -4.045196 -1.289021  1.367310
N  -3.957908 -1.303510 -0.056839
N  -2.923143 -1.560497 -0.717502
C  -1.778340 -1.852380 -0.008665
C  -0.519323 -2.167156 -0.415073
O   0.253524 -2.367505  0.692009
N  -0.531726 -2.175867  1.838304
C  -1.750109 -1.866722  1.369282
C   0.090889 -2.314110 -1.680035
C   0.609296 -2.438950 -2.755701
H   1.072312 -2.550491 -3.708816
21
CC12OC(=O)OC1OC(=O)C1=NON=C1C2=O
C  -2.499111 -1.485747 -0.518247
C  -1.556238 -0.770837  0.450976
O  -2.315562  0.167297  1.201073
C  -2.629624 -0.420846  2.389660
O  -3.414730  0.034423  3.199890
O  -1.946050 -1.588010  2.549085
C  -0.954612 -1.618175  1.536957
O  -0.710950 -2.958414  1.115711
C   0.342679 -3.293187  0.311288
O   0.628763 -4.478546  0.183394
C   1.066724 -2.237367 -0.394675
N   2.262461 -2.504663 -0.938800
O   2.682839 -1.333317 -1.535755
N   1.746120 -0.333823 -1.364322
C   0.743240 -0.887824 -0.672968
C  -0.432262 -0.093494 -0.320005
O  -0.524915  1.092608 -0.636419
H  -2.992614 -0.758290 -1.173773
H  -3.296793 -2.012517  0.017263
H  -1.977873 -2.204426 -1.158008
H  -0.041114 -1.204525  1.985220
