18
SMILES: CN(C)N1N=CN=C1[N+]([O-])=O
C         -1.75970       -0.10100       -1.21850
N         -0.91880       -0.13760       -0.02400
C         -1.36600       -0.78800        1.20800
N          0.27770        0.59710       -0.01460
N          0.33110        1.91410        0.03070
C          1.64540        2.21460        0.09780
N          2.43590        1.11500        0.09830
C          1.53300        0.11810        0.02800
N          1.89390       -1.26520       -0.06110
O          3.20830       -1.63660        0.09750
O          1.05320       -2.12590       -0.39110
H         -1.20120       -0.53240       -2.07530
H         -2.69500       -0.68250       -1.07820
H         -2.02770        0.95030       -1.45350
H         -0.61380       -1.53270        1.53860
H         -1.48650       -0.02480        2.00500
H         -2.33640       -1.30820        1.06590
H          2.02640        3.22570        0.14660
