11
SMILES: C1(=NC(=O)NN1)[N+](=O)[O-]
C          0.57050        0.17100       -0.02040
N         -0.13190        1.32410       -0.09610
C         -1.39930        0.86210       -0.04470
O         -2.41190        1.60870       -0.08620
N         -1.46640       -0.47580        0.05510
N         -0.22300       -0.91360        0.07060
N          1.99880        0.11630       -0.03580
O          2.59000       -0.98020        0.03730
O          2.73120        1.27610       -0.13150
H         -2.32110       -1.07330        0.11090
H          0.06320       -1.91540        0.14080
