15
SMILES: ON=CC1=NC(=CN1)[N+]([O-])=O
O         -2.13260        2.06590        0.05140
N         -2.69490        0.97160       -0.56520
C         -2.04750       -0.13600       -0.76550
C         -0.64420       -0.34260       -0.35610
N          0.11500        0.58770        0.26600
C          1.29690       -0.03660        0.43770
C          1.24530       -1.31390       -0.07140
N          0.01450       -1.50030       -0.57170
N          2.43190        0.56560        1.06450
O          3.60520       -0.13880        1.20240
O          2.36450        1.73630        1.49110
H         -2.67830        2.90770        0.18490
H         -2.56160       -0.95090       -1.25780
H          2.03690       -2.05170       -0.07920
H         -0.35130       -2.36380       -1.03110
