13
SMILES: ON1C=C(C(=N1)C#N)[N+]([O-])=O
O          2.91620       -0.63740        0.26590
N          1.55200       -0.48280        0.16540
C          0.91050        0.67840       -0.06300
C         -0.44020        0.40050       -0.09080
C         -0.54040       -0.96400        0.13080
N          0.69340       -1.48370        0.28490
C         -1.74530       -1.74600        0.19490
N         -2.71460       -2.37600        0.24670
N         -1.50150        1.33970       -0.30520
O         -2.81360        0.92790       -0.30860
O         -1.24130        2.54590       -0.49170
H          3.53690        0.15740        0.16770
H          1.38810        1.64030       -0.19690
