14
SMILES: ONC1=NNC=C1[N+]([O-])=O
O         -1.92810       -1.27160        1.13900
N         -1.84230       -0.58830       -0.02670
C         -0.65090        0.10890       -0.40660
N         -0.65290        1.13040       -1.28460
N          0.58390        1.60020       -1.35520
C          1.39060        0.90140       -0.53450
C          0.63410       -0.06830        0.08800
N          1.13390       -1.08560        0.96500
O          2.38040       -0.94280        1.52860
O          0.54270       -2.17810        1.07550
H         -2.21590       -0.59900        1.80810
H         -2.70360       -0.47160       -0.60600
H          0.87440        2.39440       -1.96710
H          2.45370        1.07010       -0.42360
