18
SMILES: NC1=NN(O)C(C=C)=C1[N+]([O-])=O
N          2.93500        1.06640        0.07890
C          1.51900        0.88100        0.08390
N          0.64650        1.89220       -0.09070
N         -0.56900        1.36760       -0.09000
O         -1.70790        2.14380       -0.13330
C         -0.50420        0.02550        0.07560
C         -1.65440       -0.89460        0.15710
C         -2.68220       -0.81970       -0.68420
C          0.83260       -0.31920        0.20710
N          1.38030       -1.63200        0.40650
O          2.63310       -1.79360        0.94870
O          0.70430       -2.64590        0.13860
H          3.32940        2.02980        0.00110
H          3.59690        0.26170        0.08740
H         -2.62780        1.75360        0.02370
H         -1.62520       -1.70770        0.87110
H         -3.49060       -1.53570       -0.61400
H         -2.71580       -0.07330       -1.46760
