14
SMILES: [O-][N+](=O)C1=C(NN=N1)C=C
O         -1.89770       -1.95600        0.20040
N         -2.28080       -0.63850        0.11840
O         -3.49690       -0.36000        0.13870
C         -1.32010        0.40230       -0.10300
C          0.06150        0.31900       -0.04640
N          0.52090        1.54670       -0.35620
N         -0.52030        2.33140       -0.58680
N         -1.65530        1.66250       -0.44170
C          0.89730       -0.83540        0.34650
C          2.21490       -0.86530        0.15620
H          1.51260        1.86910       -0.39000
H          0.43680       -1.69300        0.81460
H          2.74420       -0.05070       -0.31820
H          2.78320       -1.73220        0.46750
