26
SMILES: CCOC(=NC)C1=C(NC(=N1)[N+]([O-])=O)[N+]([O-])=O
C         -3.62670       -2.01480       -0.49580
C         -2.95960       -0.81400        0.15530
O         -1.55830       -0.85080       -0.09850
C         -0.67170        0.12470        0.36830
N         -1.10880        1.11810        1.09130
C         -0.27400        2.16240        1.67700
C          0.75440       -0.02760        0.04020
C          1.50700        0.74430       -0.82800
N          2.76150        0.26780       -0.85080
C          2.73880       -0.78550       -0.00820
N          1.52860       -1.00470        0.55310
N          3.87890       -1.60590        0.25930
O          3.77460       -2.66810        1.12630
O          4.97400       -1.36460       -0.28820
N          1.04960        1.82570       -1.65110
O          1.94850        2.53040       -2.41680
O         -0.16540        2.09780       -1.73400
H         -3.45600       -1.99470       -1.59310
H         -4.71940       -1.98890       -0.29980
H         -3.20710       -2.95450       -0.07830
H         -3.39300        0.11930       -0.26530
H         -3.14380       -0.84140        1.25130
H          0.20980        2.76390        0.88060
H         -0.90980        2.83400        2.28930
H          0.50090        1.70980        2.33160
H          3.56710        0.61730       -1.41600
