18
SMILES: ON1C=C(CC=N)C(=N1)[N+]([O-])=O
O          3.12700       -1.44200       -0.43840
N          2.05270       -0.60120       -0.25450
C          0.75840       -0.94830       -0.36700
C         -0.01070        0.17400       -0.10580
C         -1.51110        0.29750       -0.16790
C         -2.20370       -1.03830       -0.15070
N         -2.20940       -1.77390        0.90280
C          0.92330        1.17950        0.13310
N          2.17280        0.68050        0.04460
N          0.65230        2.56160        0.40040
O         -0.62700        3.06150        0.33640
O          1.59580        3.34070        0.64530
H          2.98780       -2.41780       -0.67320
H          0.40630       -1.93840       -0.62610
H         -1.78270        0.83220       -1.10250
H         -1.87660        0.89200        0.69560
H         -2.72070       -1.38220       -1.04060
H         -1.73440       -1.47730        1.76830
