16
SMILES: [O-][N+](=O)C1=NC(=N)NN1C=C
O         -0.39420       -3.53500       -0.06110
N         -0.79850       -2.23640       -0.26440
O         -1.89570       -2.02470       -0.81860
C          0.11780       -1.16490       -0.00070
N          1.43450       -1.37580        0.22570
C          1.88880       -0.11450        0.38250
N          3.12340        0.17510        0.63640
N          0.92260        0.81000        0.26160
N         -0.19930        0.15290        0.01880
C         -1.50400        0.75240       -0.07060
C         -1.67290        2.02600       -0.42110
H          3.84560       -0.57400        0.72860
H          1.02260        1.84230        0.38540
H         -2.38400        0.16450        0.15200
H         -0.83640        2.65950       -0.68170
H         -2.67040        2.44260       -0.47280
