15
SMILES: [O-][N+](=O)C1=NC(=O)NN1C=C
O         -0.30520        2.40000        2.00920
N         -0.61660        1.32040        1.21690
O         -0.33460        2.30020        1.93600
C          0.40270        0.62910        0.49080
N          1.71760        0.94130        0.57260
C          2.27000       -0.02540       -0.18970
O          3.50790       -0.12310       -0.39590
N          1.36320       -0.87620       -0.69730
N          0.18190       -0.46130       -0.27970
C         -1.04790       -1.14170       -0.58200
C         -2.22750       -0.52370       -0.61250
H          1.54010       -1.70740       -1.30540
H         -1.00810       -2.18670       -0.86420
H         -3.11810       -1.08080       -0.87310
H         -2.32530        0.53530       -0.42570
