10
SMILES: [O-][N+](=O)C1=NC(=O)ON1
O          2.28890        0.97020       -1.20230
N          1.72260        0.37100       -0.10170
O          2.44120        0.07120        0.87330
C          0.32010        0.09560       -0.07890
N         -0.51510        0.39320       -1.09790
C         -1.68600       -0.05240       -0.59580
O         -2.77910        0.01800       -1.21530
O         -1.56140       -0.56510        0.60400
N         -0.31640       -0.48650        0.95440
H          0.08520       -0.81540        1.86020
