10
SMILES: [O-][N+](=O)C1=NC(=O)NO1
O          2.58340        1.28500        0.51350
N          1.94570        0.07510        0.37030
O          2.58970       -0.98320        0.51780
C          0.55430        0.02990        0.05480
N         -0.21030        1.13100       -0.12000
C         -1.40270        0.56180       -0.38980
O         -2.44890        1.22000       -0.62790
N         -1.35470       -0.77990       -0.37720
O         -0.12620       -1.08300       -0.09820
H         -2.13020       -1.45670       -0.55230
