11
SMILES: [O-][N+](=O)C1=NC(=O)NN1
O          2.62010        1.45280       -0.36050
N          1.97600        0.31680        0.07040
O          2.64150       -0.62190        0.55320
C          0.55410        0.21630       -0.03620
N         -0.22580        1.19490       -0.54880
C         -1.45090        0.63950       -0.43480
O         -2.50970        1.21430       -0.79960
N         -1.42170       -0.58890        0.10800
N         -0.15600       -0.85750        0.36020
H         -2.22750       -1.22450        0.30170
H          0.19990       -1.74190        0.78640
