12
SMILES: [O-][N+](=O)C1=NC(=N)NN1
O          2.49470       -1.86490       -0.06700
N          2.13160       -0.53870       -0.07700
O          3.01540        0.34060       -0.12960
C          0.75020       -0.17450       -0.02740
N         -0.25630       -1.07580        0.03070
C         -1.33450       -0.26190        0.05950
N         -2.55340       -0.69010        0.11730
N         -1.00920        1.04110        0.02170
N          0.30670        1.09740       -0.03310
H         -2.76560       -1.71250        0.14510
H         -1.65150        1.86480        0.03250
H          0.87190        1.97470       -0.07270
