11
SMILES: [O-][N+](=O)C1=NNC(=O)N1
O          2.78120        0.67410       -0.15870
N          1.96160       -0.40410        0.07990
O          2.46680       -1.51930        0.32090
C          0.54100       -0.24900        0.05200
N         -0.32740       -1.25940        0.27600
N         -1.53420       -0.72690        0.16500
C         -1.37700        0.57580       -0.11980
O         -2.33130        1.37930       -0.29100
N         -0.08210        0.92030       -0.20040
H         -2.43180       -1.24700        0.28220
H          0.33320        1.85610       -0.40620
