18
SMILES: CCN=C1NNC(=N1)[N+]([O-])=O
C         -3.30270        0.97820        0.12270
C         -2.12030        0.03230        0.26830
N         -0.87460        0.77050        0.08420
C          0.30760        0.23520        0.14990
N          0.54580       -1.06930        0.39600
N          1.85540       -1.22030        0.38280
C          2.38440       -0.00900        0.12990
N          1.44120        0.94730       -0.02550
N          3.78850        0.24180        0.03550
O          4.68910       -0.78350        0.20570
O          4.20570        1.39350       -0.20220
H         -3.30280        1.43590       -0.88940
H         -4.25020        0.41650        0.26280
H         -3.24500        1.78160        0.88760
H         -2.14110       -0.42390        1.28200
H         -2.19890       -0.77010       -0.49730
H         -0.14230       -1.83600        0.56750
H          2.36020       -2.12050        0.54150
